% demand
num_movements = 10;
loading_factor = [1950, 1500, 1800, 1200, 1550, 1450, 1400, 800, 1850, 1500];
pickup_time = [0, 0, 1, 1, 2, 5, 5, 5, 5, 5];
delivery_time = [3, 4, 2, 4, 3, 6, 6, 6, 6, 6];

% transporter definition
total_capacity = 7000;
num_decks = 3;
capacity = [3000, 1000, 3000];

% ways out of decks
num_ways_out = 1;
paths_out = array3d(decks, ways_out, decks, [
% ways out of deck d1
2, 3, 0, 

% ways out of deck d2
3, 0, 0, 

% ways out of deck d3
0, 0, 0,	

]);

